(set-info :smt-lib-version 2.6)
(set-info :category "crafted")
(set-logic QF_FF)
(define-sort FF0 () (_ FiniteField 52435875175126190479447740508185965837690552500527637822603658699938581184513))
(declare-fun out_alt () FF0)
(declare-fun _10_alt () FF0)
(declare-fun _9_alt () FF0)
(declare-fun _5_alt () FF0)
(declare-fun _8_alt () FF0)
(declare-fun _4_alt () FF0)
(declare-fun _7_alt () FF0)
(declare-fun _6_alt () FF0)
(declare-fun _2_alt () FF0)
(declare-fun _1_alt () FF0)
(declare-fun _0_alt () FF0)
(declare-fun _3_alt () FF0)
(declare-fun out () FF0)
(declare-fun _10 () FF0)
(declare-fun _9 () FF0)
(declare-fun _5 () FF0)
(declare-fun _8 () FF0)
(declare-fun _4 () FF0)
(declare-fun _7 () FF0)
(declare-fun _6 () FF0)
(declare-fun _2 () FF0)
(declare-fun _1 () FF0)
(declare-fun _0 () FF0)
(declare-fun _3 () FF0)
(assert 
  (let ((let0 out_alt))
  (let ((let1 _10_alt))
  (let ((let2 (= let1 let0)))
  (let ((let3 (as ff52435875175126190479447740508185965837690552500527637822603658699938581184512 FF0)))
  (let ((let4 (ff.mul let1 let3)))
  (let ((let5 _9_alt))
  (let ((let6 _5_alt))
  (let ((let7 (ff.add let6 let5 let4)))
  (let ((let8 (ff.mul let5 let6)))
  (let ((let9 (= let8 let7)))
  (let ((let10 (ff.mul let5 let3)))
  (let ((let11 _8_alt))
  (let ((let12 _4_alt))
  (let ((let13 (ff.add let12 let11 let10)))
  (let ((let14 (ff.mul let11 let12)))
  (let ((let15 (= let14 let13)))
  (let ((let16 _7_alt))
  (let ((let17 (ff.mul let16 let3)))
  (let ((let18 _6_alt))
  (let ((let19 _2_alt))
  (let ((let20 (ff.add let19 let18 let17)))
  (let ((let21 (ff.mul let18 let19)))
  (let ((let22 (= let21 let20)))
  (let ((let23 (ff.mul let18 let3)))
  (let ((let24 _1_alt))
  (let ((let25 _0_alt))
  (let ((let26 (ff.add let25 let24 let23)))
  (let ((let27 (ff.mul let25 let24)))
  (let ((let28 (= let27 let26)))
  (let ((let29 (ff.mul let6 let6)))
  (let ((let30 (= let29 let6)))
  (let ((let31 (ff.mul let12 let12)))
  (let ((let32 (= let31 let12)))
  (let ((let33 _3_alt))
  (let ((let34 (ff.mul let33 let33)))
  (let ((let35 (= let34 let33)))
  (let ((let36 (ff.mul let19 let19)))
  (let ((let37 (= let36 let19)))
  (let ((let38 (ff.mul let24 let24)))
  (let ((let39 (= let38 let24)))
  (let ((let40 (ff.mul let25 let25)))
  (let ((let41 (= let40 let25)))
  (let ((let42 (and let41 let39 let37 let35 let32 let30 let28 let22 let15 let9 let2)))
  (let ((let43 out))
  (let ((let44 _10))
  (let ((let45 (= let44 let43)))
  (let ((let46 (ff.mul let44 let3)))
  (let ((let47 _9))
  (let ((let48 _5))
  (let ((let49 (ff.add let48 let47 let46)))
  (let ((let50 (ff.mul let47 let48)))
  (let ((let51 (= let50 let49)))
  (let ((let52 (ff.mul let47 let3)))
  (let ((let53 _8))
  (let ((let54 _4))
  (let ((let55 (ff.add let54 let53 let52)))
  (let ((let56 (ff.mul let53 let54)))
  (let ((let57 (= let56 let55)))
  (let ((let58 _7))
  (let ((let59 (ff.mul let58 let3)))
  (let ((let60 _6))
  (let ((let61 _2))
  (let ((let62 (ff.add let61 let60 let59)))
  (let ((let63 (ff.mul let60 let61)))
  (let ((let64 (= let63 let62)))
  (let ((let65 (ff.mul let60 let3)))
  (let ((let66 _1))
  (let ((let67 _0))
  (let ((let68 (ff.add let67 let66 let65)))
  (let ((let69 (ff.mul let67 let66)))
  (let ((let70 (= let69 let68)))
  (let ((let71 (ff.mul let48 let48)))
  (let ((let72 (= let71 let48)))
  (let ((let73 (ff.mul let54 let54)))
  (let ((let74 (= let73 let54)))
  (let ((let75 _3))
  (let ((let76 (ff.mul let75 let75)))
  (let ((let77 (= let76 let75)))
  (let ((let78 (ff.mul let61 let61)))
  (let ((let79 (= let78 let61)))
  (let ((let80 (ff.mul let66 let66)))
  (let ((let81 (= let80 let66)))
  (let ((let82 (ff.mul let67 let67)))
  (let ((let83 (= let82 let67)))
  (let ((let84 (and let83 let81 let79 let77 let74 let72 let70 let64 let57 let51 let45)))
  (let ((let85 (= let43 let0)))
  (let ((let86 (not let85)))
  (let ((let87 (= let48 let6)))
  (let ((let88 (= let75 let33)))
  (let ((let89 (= let54 let12)))
  (let ((let90 (= let66 let24)))
  (let ((let91 (= let61 let19)))
  (let ((let92 (= let67 let25)))
  (let ((let93 (and let92 let91 let90 let89 let88 let87)))
  (let ((let94 (and let93 let86 let84 let42)))
  let94
)))))))))))))))))))))))))))))))))))))))))))))))))))))))))))))))))))))))))))))))))))))))))))))))
)
(check-sat)
